p tw 41 758
0 1
0 2
0 3
0 4
0 5
0 6
0 7
0 8
0 9
0 10
0 11
0 12
0 13
0 14
0 20
0 22
0 24
0 25
0 26
0 27
0 29
0 30
0 31
0 32
0 33
0 34
0 15
0 19
0 21
0 23
0 35
0 36
0 16
0 37
0 28
0 39
0 17
0 18
0 40
1 2
1 3
1 4
1 5
1 6
1 7
1 8
1 9
1 10
1 11
1 12
1 13
1 14
1 15
1 16
1 17
1 18
1 19
1 20
1 21
1 22
1 23
1 24
1 25
1 26
1 27
1 28
1 30
1 32
1 36
1 38
1 39
1 31
1 34
1 40
1 37
2 3
2 4
2 5
2 6
2 7
2 8
2 9
2 10
2 11
2 12
2 13
2 14
2 20
2 22
2 24
2 25
2 26
2 27
2 29
2 30
2 31
2 32
2 33
2 34
2 15
2 19
2 21
2 23
2 35
2 36
2 16
2 37
2 18
2 28
2 38
2 39
2 17
2 40
3 4
3 5
3 6
3 7
3 8
3 9
3 10
3 11
3 12
3 13
3 14
3 15
3 19
3 21
3 23
3 25
3 27
3 31
3 33
3 34
3 35
3 36
3 18
3 22
3 28
3 38
3 17
3 24
3 26
3 30
3 37
3 39
3 20
3 40
3 29
3 16
3 32
4 5
4 6
4 7
4 8
4 9
4 10
4 11
4 12
4 13
4 14
4 20
4 22
4 24
4 25
4 26
4 27
4 29
4 30
4 31
4 32
4 33
4 34
4 16
4 19
4 35
4 37
4 15
4 18
4 28
4 36
4 38
4 39
4 21
4 17
4 23
5 6
5 7
5 8
5 9
5 10
5 11
5 12
5 13
5 14
5 20
5 22
5 24
5 25
5 26
5 27
5 29
5 30
5 31
5 32
5 33
5 34
5 36
5 38
5 39
5 19
5 21
5 28
5 37
5 15
5 23
5 16
5 17
6 7
6 8
6 9
6 10
6 11
6 12
6 13
6 15
6 18
6 19
6 21
6 22
6 23
6 28
6 38
6 14
6 17
6 24
6 26
6 27
6 30
6 31
6 34
6 37
6 39
6 20
6 40
6 32
6 36
6 29
6 33
6 16
7 8
7 9
7 10
7 11
7 12
7 13
7 14
7 16
7 19
7 26
7 27
7 29
7 31
7 35
7 37
7 15
7 18
7 20
7 22
7 24
7 25
7 28
7 34
7 36
7 17
7 23
7 30
7 32
8 9
8 10
8 11
8 12
8 13
8 14
8 15
8 16
8 17
8 18
8 19
8 20
8 21
8 22
8 23
8 24
8 25
8 26
8 27
8 28
8 29
8 30
8 31
8 32
8 33
8 34
8 36
8 37
8 39
9 10
9 11
9 12
9 13
9 14
9 15
9 19
9 21
9 23
9 25
9 27
9 31
9 33
9 34
9 35
9 36
9 16
9 26
9 29
9 37
9 20
9 24
9 30
9 32
9 38
9 39
9 18
9 22
9 28
9 17
9 40
10 11
10 12
10 13
10 14
10 15
10 16
10 17
10 18
10 19
10 20
10 21
10 22
10 23
10 24
10 25
10 26
10 27
10 28
10 31
10 33
10 34
10 35
10 36
10 29
10 37
10 30
10 39
10 32
11 12
11 13
11 15
11 18
11 20
11 22
11 24
11 25
11 28
11 29
11 34
11 35
11 36
11 26
11 30
11 32
11 38
11 39
11 19
11 21
11 23
11 14
11 17
11 27
11 31
11 33
11 40
11 16
11 37
12 13
12 14
12 17
12 19
12 20
12 22
12 26
12 27
12 28
12 31
12 33
12 35
12 39
12 40
12 21
12 29
13 15
13 18
13 20
13 22
13 24
13 25
13 28
13 29
13 34
13 35
13 36
13 26
13 30
13 32
13 38
13 39
13 14
13 17
13 21
13 31
13 40
14 15
14 16
14 17
14 18
14 19
14 20
14 21
14 22
14 23
14 24
14 25
14 26
14 27
14 28
14 29
14 30
14 31
14 32
14 33
14 34
14 35
14 36
14 37
14 39
14 40
15 16
15 17
15 18
15 19
15 20
15 21
15 22
15 23
15 24
15 25
15 26
15 27
15 28
15 31
15 33
15 34
15 35
15 36
15 29
15 38
15 39
15 40
15 32
15 37
15 30
16 17
16 18
16 19
16 20
16 21
16 22
16 23
16 24
16 25
16 26
16 27
16 28
16 29
16 31
16 35
16 37
16 32
16 34
16 36
16 39
16 30
17 18
17 19
17 20
17 21
17 22
17 23
17 24
17 25
17 26
17 27
17 28
17 30
17 31
17 34
17 37
17 39
17 40
17 33
17 35
17 32
17 36
17 29
18 19
18 20
18 21
18 22
18 23
18 24
18 25
18 26
18 27
18 28
18 29
18 34
18 35
18 36
18 38
18 30
18 31
18 37
18 39
18 40
19 20
19 21
19 22
19 23
19 24
19 25
19 26
19 27
19 28
19 31
19 33
19 34
19 35
19 36
19 29
19 37
19 38
19 30
19 32
19 39
19 40
20 21
20 22
20 23
20 24
20 25
20 26
20 27
20 28
20 29
20 30
20 31
20 32
20 33
20 34
20 35
20 36
20 38
20 39
20 40
20 37
21 22
21 23
21 24
21 25
21 26
21 27
21 28
21 31
21 33
21 34
21 35
21 36
21 38
21 30
21 37
21 39
21 40
21 32
21 29
22 23
22 24
22 25
22 26
22 27
22 28
22 29
22 30
22 31
22 32
22 33
22 34
22 35
22 36
22 38
22 37
22 39
22 40
23 24
23 25
23 26
23 27
23 28
23 31
23 33
23 34
23 35
23 36
23 38
23 30
23 37
23 39
23 29
23 32
24 25
24 26
24 27
24 28
24 29
24 30
24 31
24 32
24 33
24 34
24 35
24 36
24 38
24 39
24 37
24 40
25 26
25 27
25 28
25 29
25 30
25 31
25 32
25 33
25 34
25 35
25 36
25 37
25 39
26 27
26 28
26 29
26 30
26 31
26 32
26 33
26 34
26 35
26 37
26 36
26 38
26 39
26 40
27 28
27 29
27 30
27 31
27 32
27 33
27 34
27 35
27 36
27 37
27 39
27 40
28 29
28 34
28 35
28 36
28 38
28 30
28 31
28 33
28 37
28 39
28 32
28 40
29 30
29 31
29 32
29 33
29 34
29 35
29 37
29 36
29 39
30 31
30 32
30 33
30 34
30 36
30 38
30 39
30 37
31 32
31 33
31 34
31 35
31 36
31 37
31 39
31 40
32 33
32 34
32 36
32 38
32 39
32 37
32 35
33 34
33 35
33 36
33 37
33 39
33 40
34 35
34 36
34 37
34 39
34 40
35 36
35 37
35 39
35 40
36 38
36 39
36 37
37 39
38 39
39 40
